&control
    calculation = 'scf'
    prefix = 'h2'
    pseudo_dir = '/home/bngjn/qe/SSSP_precision_pseudos'
    outdir='./outdir'
/
&system
    ibrav=1, celldm(1) =20, 
    nat=2, ntyp=1,
    ecutwfc=30.0
/
&electrons
    conv_thr=1e-8
/
ATOMIC_SPECIES
 H  1.00784  H_ONCV_PBE-1.0.oncvpsp.upf
ATOMIC_POSITIONS (angstrom)
 H 0.00 0.00 0.00
 H 2.00 0.00 0.00
K_POINTS (automatic)
  1 1 1 0 0 0
