 &CONTROL
    calculation = 'scf'
    prefix = 'C6H6'
    outdir = './outdir'
    pseudo_dir = '/home/bngjn/qe/nc-sr-04_pbe_stringent_upf'
 /
 &SYSTEM
    ibrav = 6,
    celldm(1) = 32.0,
    celldm(3) = 0.83,
    nat = 12,
    ntyp = 2,
    ecutwfc = 40,
    ecutrho = 320
 /
 &ELECTRONS
    conv_thr =  1.0d-10
 /

ATOMIC_SPECIES
 C  12.0107  C.upf
 H  1.00784  H.upf

ATOMIC_POSITIONS angstrom
C        5.634903849   6.321971149   5.000000000    
C        6.847106009   8.420379005   5.000000000   
C        8.059072507   7.720812652   5.000000000  
C        8.058983381   6.321773505   5.000000000  
C        6.846893191   5.622390078   5.000000000   
C        5.635013467   7.721009207   5.000000000   
H        6.847224383   9.524130389   5.000000000  
H        9.014966289   8.272589702   5.000000000   
H        9.014833493   5.769917630   5.000000000  
H        6.846819207   4.518641305   5.000000000    
H        4.678985027   5.770244740   5.000000000   
H        4.679199196   8.272940639   5.000000000   


K_POINTS gamma
